p cnf 75 281
-3 2 0
-3 -1 0
-2 1 3 0
4 -3 0
4 -1 0
3 1 -4 0
5 4 0
5 -3 0
-4 3 -5 0
1 5 -6 0
-1 -5 -6 0
1 -5 6 0
-1 5 6 0
8 -7 0
8 2 0
7 -2 -8 0
-8 -9 -10 0
8 9 -10 0
-8 9 10 0
8 -9 10 0
-11 -6 0
-11 -10 0
6 10 11 0
-3 7 -13 0
3 -7 -13 0
-3 -7 13 0
3 7 13 0
14 -12 0
14 13 0
12 -13 -14 0
16 -14 0
16 15 0
14 -15 -16 0
-17 16 0
-17 3 0
-16 -3 17 0
11 17 -18 0
-11 -17 -18 0
11 -17 18 0
-11 17 18 0
19 5 0
19 -14 0
-5 14 -19 0
19 -1 -20 0
-19 1 -20 0
19 1 20 0
-19 -1 20 0
-21 -3 0
-21 -3 0
3 21 0
-22 -20 0
-22 -21 0
20 21 22 0
-23 7 0
-23 -3 0
-7 3 23 0
-24 -8 0
-24 -23 0
8 23 24 0
24 12 -25 0
-24 -12 -25 0
24 -12 25 0
-24 12 25 0
-26 12 0
-26 12 0
-12 26 0
-27 13 0
-27 7 0
-13 -7 27 0
-28 -26 0
-28 -27 0
26 27 28 0
29 -2 0
29 -16 0
2 16 -29 0
28 -29 -30 0
-28 29 -30 0
28 29 30 0
-28 -29 30 0
-25 30 -31 0
25 -30 -31 0
-25 -30 31 0
25 30 31 0
32 -15 0
32 -1 0
15 1 -32 0
-33 -8 -35 0
33 8 -35 0
-33 8 35 0
33 -8 35 0
36 35 0
36 -14 0
-35 14 -36 0
-37 19 0
-37 -36 0
-19 36 37 0
-34 -37 -38 0
34 37 -38 0
-34 37 38 0
34 -37 38 0
-39 -33 0
-39 38 0
33 -38 39 0
-4 -13 -40 0
4 13 -40 0
-4 13 40 0
4 -13 40 0
-41 -40 0
-41 27 0
40 -27 41 0
42 -8 0
42 24 0
8 -24 -42 0
43 -42 0
43 -13 0
42 13 -43 0
41 43 -44 0
-41 -43 -44 0
41 -43 44 0
-41 43 44 0
-45 -13 0
-45 1 0
13 -1 45 0
-46 45 0
-46 7 0
-45 -7 46 0
-44 -46 -47 0
44 46 -47 0
-44 46 47 0
44 -46 47 0
-39 -47 -48 0
39 47 -48 0
-39 47 48 0
39 -47 48 0
49 38 0
49 -40 0
-38 40 -49 0
-50 49 0
-50 -14 0
-49 14 50 0
-51 -48 0
-51 -50 0
48 50 51 0
52 32 0
52 -51 0
-32 51 -52 0
-31 52 -53 0
31 -52 -53 0
-31 -52 53 0
31 52 53 0
54 -22 0
54 53 0
22 -53 -54 0
-55 -14 0
-55 -28 0
14 28 55 0
-56 55 0
-56 -40 0
-55 40 56 0
-23 -57 -58 0
23 57 -58 0
-23 57 58 0
23 -57 58 0
59 -27 0
59 58 0
27 -58 -59 0
19 -2 -60 0
-19 2 -60 0
19 2 60 0
-19 -2 60 0
-61 -59 0
-61 60 0
59 -60 61 0
-62 -19 0
-62 29 0
19 -29 62 0
63 -61 0
63 62 0
61 -62 -63 0
36 14 -64 0
-36 -14 -64 0
36 -14 64 0
-36 14 64 0
-65 63 0
-65 64 0
-63 -64 65 0
-56 -65 -66 0
56 65 -66 0
-56 65 66 0
56 -65 66 0
-67 -54 0
-67 66 0
54 -66 67 0
-68 18 0
-68 67 0
-18 -67 68 0
-70 -69 0
-70 -19 0
69 19 70 0
-71 12 0
-71 -8 0
-12 8 71 0
-72 70 0
-72 71 0
-70 -71 72 0
-4 49 -73 0
4 -49 -73 0
-4 -49 73 0
4 49 73 0
-74 -72 0
-74 73 0
72 -73 74 0
75 68 0
75 -74 0
-68 74 -75 0
-29 -16 -44 20 -23 0
40 -10 -25 38 0
-45 61 -33 3 0
-64 9 36 0
-20 -69 34 -10 0
-8 5 10 -40 -35 0
-50 -55 -25 0
6 58 -50 0
-12 -67 63 0
-24 -9 73 -35 69 61 0
41 66 -7 67 0
-24 -45 0
29 26 44 -57 20 0
25 -16 39 0
-16 41 -7 -46 62 0
47 -36 2 17 -27 37 0
29 51 -40 -39 -48 0
9 -45 3 0
-73 40 55 -9 0
-69 74 -21 35 0
-71 23 -44 -14 13 0
-2 64 -27 -68 18 0
-9 -64 0
-55 67 0
-42 -11 58 -33 0
45 36 -2 40 -8 0
-13 -71 0
61 72 -44 -8 29 0
-37 -44 18 0
19 17 -44 39 0
63 -69 -4 0
20 -52 45 0
5 -36 -74 0
47 61 34 -23 19 0
-57 4 -72 -9 0
-10 -2 -72 23 5 -34 0
-43 -56 0
-59 -23 19 0
73 -6 0
-26 -51 47 0
37 -64 0
-1 67 -11 -4 -5 0
34 46 63 69 -9 53 0
-43 -39 0
-46 68 -26 0
74 12 -57 42 0
-36 71 0
-57 -12 29 -2 70 13 0
17 -59 -6 51 31 41 0
46 -63 -39 -17 29 0
-15 -10 56 -71 0
55 68 5 0
2 29 -35 40 0
39 10 64 0
38 55 0
7 46 -44 -9 49 28 0
44 19 -62 0
14 35 26 0
-12 37 64 0
70 67 58 -64 -2 -24 0
-65 34 9 0
48 65 41 0
-21 -23 0
-16 -72 4 51 33 30 0
61 -60 -16 0
75 0
